c description: Random 3-CNF over 16 variables and 32 clauses
p cnf 16 32
4 -8 -10 0
6 9 13 0
4 5 -9 0
1 8 -15 0
5 -6 15 0
6 15 -16 0
2 11 15 0
-8 9 -10 0
-2 9 14 0
4 7 -9 0
2 -4 -15 0
1 -9 11 0
8 12 -16 0
-1 -8 14 0
-4 9 -11 0
12 13 16 0
-4 -10 -15 0
11 13 14 0
7 -13 15 0
2 -4 -5 0
2 -4 -16 0
-5 6 12 0
2 5 -16 0
-5 7 -16 0
-1 6 9 0
2 -5 -10 0
2 -9 16 0
3 -6 14 0
10 -12 -15 0
-5 -12 16 0
-2 -9 10 0
-10 -12 15 0